
Gurobi 11.0.3 (linux64) logging started Mon Aug 25 15:05:57 2025

Set parameter LogFile to value "/home/yihong/Coding/OR_SUC/SUC_epstheta_results_bigM100000_thread4/case24_ieee_rts_theta0.1_epsilon0.1_gurobi_seed220000_num_gen100_N_WDR50_load_scaling_factor1_proposed_eps_T10quadra_cost_bc1.03.txt"
Set parameter TimeLimit to value 3600
Gurobi Optimizer version 11.0.3 build v11.0.3rc0 (linux64 - "Ubuntu 20.04.6 LTS")

CPU model: AMD EPYC 7532 32-Core Processor, instruction set [SSE2|AVX|AVX2]
Thread count: 64 physical cores, 128 logical processors, using up to 4 threads

Academic license 2399124 - for non-commercial use only - registered to yi___@ed.ac.uk
Optimize a model with 23642 rows, 12451 columns and 547142 nonzeros
Model fingerprint: 0x642c07a5
Model has 1000 quadratic constraints
Variable types: 11451 continuous, 1000 integer (1000 binary)
Coefficient statistics:
  Matrix range     [3e-04, 2e+03]
  QMatrix range    [2e-03, 8e-03]
  QLMatrix range   [2e-01, 6e+01]
  Objective range  [1e+00, 1e+00]
  Bounds range     [1e+00, 1e+00]
  RHS range        [1e+00, 9e+03]
Presolve removed 19611 rows and 5483 columns
Presolve time: 0.14s
Presolved: 4031 rows, 6968 columns, 22669 nonzeros
Presolved model has 1000 quadratic constraint(s)
Variable types: 5968 continuous, 1000 integer (1000 binary)

Root relaxation: objective 1.130787e+04, 3299 iterations, 0.06 seconds (0.08 work units)

    Nodes    |    Current Node    |     Objective Bounds      |     Work
 Expl Unexpl |  Obj  Depth IntInf | Incumbent    BestBd   Gap | It/Node Time

     0     0 11307.8749    0   10          - 11307.8749      -     -    0s
     0     0 32976.7721    0  488          - 32976.7721      -     -    0s
     0     0 163596.756    0  366          - 163596.756      -     -    0s
     0     0 164524.208    0  323          - 164524.208      -     -    1s
     0     0 164710.221    0  220          - 164710.221      -     -    1s
     0     0 164710.732    0  220          - 164710.732      -     -    1s
     0     0 164710.732    0  220          - 164710.732      -     -    1s
     0     0 164710.911    0  220          - 164710.911      -     -    1s
     0     2 164710.911    0  220          - 164710.911      -     -    3s
H  396   240                    164831.66655 164738.541  0.06%  13.2    4s
*  396   240             109    164831.66655 164738.541  0.06%  13.2    4s

Cutting planes:
  Gomory: 35
  Implied bound: 348
  MIR: 37
  Flow cover: 100

Explored 424 nodes (15768 simplex iterations) in 4.58 seconds (3.56 work units)
Thread count was 4 (of 128 available processors)

Solution count 2: 164832 164832 

Optimal solution found (tolerance 1.00e-03)
Warning: max constraint violation (2.8120e-07) exceeds tolerance
Best objective 1.648316665520e+05, best bound 1.647385413240e+05, gap 0.0565%

Gurobi 11.0.3 (linux64) logging started Mon Aug 25 15:06:02 2025

Set parameter LogFile to value "/home/yihong/Coding/OR_SUC/SUC_epstheta_results_bigM100000_thread4/case24_ieee_rts_theta0.1_epsilon0.1_gurobi_seed220000_num_gen100_N_WDR50_load_scaling_factor1_proposed_eps_T10quadra_cost_bc1.03.txt"
Set parameter TimeLimit to value 3600
Gurobi Optimizer version 11.0.3 build v11.0.3rc0 (linux64 - "Ubuntu 20.04.6 LTS")

CPU model: AMD EPYC 7532 32-Core Processor, instruction set [SSE2|AVX|AVX2]
Thread count: 64 physical cores, 128 logical processors, using up to 4 threads

Academic license 2399124 - for non-commercial use only - registered to yi___@ed.ac.uk
Optimize a model with 23642 rows, 12452 columns and 550191 nonzeros
Model fingerprint: 0x15cd323b
Model has 1001 quadratic constraints
Variable types: 11452 continuous, 1000 integer (1000 binary)
Coefficient statistics:
  Matrix range     [3e-04, 2e+03]
  QMatrix range    [2e-03, 5e+01]
  QLMatrix range   [2e-01, 6e+01]
  Objective range  [1e+00, 1e+00]
  Bounds range     [1e-01, 1e+00]
  RHS range        [1e+00, 2e+05]
  QRHS range       [5e+00, 5e+00]
Presolve removed 17797 rows and 4575 columns
Presolve time: 0.17s
Presolved: 6847 rows, 8877 columns, 35572 nonzeros
Presolved model has 1000 quadratic constraint(s)
Presolved model has 1 bilinear constraint(s)

Solving non-convex MIQCP

Variable types: 7875 continuous, 1002 integer (1002 binary)

Root relaxation: objective 1.425206e-03, 9823 iterations, 0.55 seconds (0.73 work units)

    Nodes    |    Current Node    |     Objective Bounds      |     Work
 Expl Unexpl |  Obj  Depth IntInf | Incumbent    BestBd   Gap | It/Node Time

     0     0    0.00143    0    2          -    0.00143      -     -    1s
     0     0    0.00143    0    2          -    0.00143      -     -    1s
     0     0    0.00143    0    2          -    0.00143      -     -    1s
     0     0    0.00208    0    2          -    0.00208      -     -    1s
H    0     0                       0.0140906    0.00208  85.2%     -    1s
H    0     0                       0.0140906    0.00208  85.2%     -    1s
     0     2    0.01382    0    2    0.01409    0.01382  1.92%     -    2s
H   27    29                       0.0140906    0.01388  1.49%  17.3    2s
H   66    33                       0.0140825    0.01388  1.42%  16.0    3s
*   66    33              16       0.0140825    0.01388  1.42%  16.0    3s
H   85    35                       0.0139086    0.01388  0.19%  14.1    4s
*   85    35              20       0.0139086    0.01388  0.19%  14.1    4s
H  108     2                       0.0138997    0.01390  0.00%  12.0    4s
*  108     2              22       0.0138997    0.01390  0.00%  12.1    4s

Cutting planes:
  RLT: 1

Explored 126 nodes (11789 simplex iterations) in 4.50 seconds (5.44 work units)
Thread count was 4 (of 128 available processors)

Solution count 5: 0.0138997 0.0139086 0.0140825 ... 0.0140906

Optimal solution found (tolerance 1.00e-03)
Warning: max constraint violation (6.5117e-08) exceeds tolerance
Best objective 1.389965306806e-02, best bound 1.389954994107e-02, gap 0.0007%
